LAMMPS (10 Dec 2025 - Development - patch_10Dec2025-121-gd51f1eef21)
OMP_NUM_THREADS environment is not set. Defaulting to 1 thread.
  using 1 OpenMP thread(s) per MPI task
# FENE bead-spring polymer chains
# 瓶颈: pair + bond + neighbor (高密度聚合物)
# 特点: 键相互作用显著, 邻居列表更新频繁

units           lj
atom_style      bond
special_bonds   fene

read_data       ../../third_party/lammps/bench/data.chain
Reading data file ...
  orthogonal box = (-16.796 -16.796 -16.796) to (16.796 16.796 16.796)
  1 by 1 by 1 MPI processor grid
  reading atoms ...
  32000 atoms
  reading velocities ...
  32000 velocities
  scanning bonds ...
  1 = max bonds/atom
  orthogonal box = (-16.796 -16.796 -16.796) to (16.796 16.796 16.796)
  1 by 1 by 1 MPI processor grid
  reading bonds ...
  31680 bonds
Finding 1-2 1-3 1-4 neighbors ...
  special bond factors lj:    0        1        1       
  special bond factors coul:  0        1        1       
     2 = max # of 1-2 neighbors
     2 = max # of special neighbors
  special bonds CPU = 0.002 seconds
  read_data CPU = 0.126 seconds

# 复制系统 2x2x2 = 8倍原子数
replicate       2 2 2
Replication is creating a 2x2x2 = 8 times larger system...
  orthogonal box = (-16.796 -16.796 -16.796) to (50.388 50.388 50.388)
  1 by 1 by 1 MPI processor grid
  256000 atoms
  253440 bonds
Finding 1-2 1-3 1-4 neighbors ...
  special bond factors lj:    0        1        1       
  special bond factors coul:  0        1        1       
     2 = max # of 1-2 neighbors
     2 = max # of special neighbors
  special bonds CPU = 0.012 seconds
  replicate CPU = 0.021 seconds

neighbor        0.4 bin
neigh_modify    every 1 delay 1

bond_style      fene
bond_coeff      1 30.0 1.5 1.0 1.0

pair_style      lj/cut 1.12
pair_modify     shift yes
pair_coeff      1 1 1.0 1.0 1.12

fix             1 all nve
fix             2 all langevin 1.0 1.0 10.0 904297

thermo          100
thermo_style    custom step temp pe ke etotal press
timestep        0.012

# 2000 步, 预计运行 30-60 秒
run             2000
Generated 0 of 0 mixed pair_coeff terms from geometric mixing rule
WARNING: Communication cutoff 1.52 is shorter than a bond length based estimate of 1.855. This may lead to errors. (src/comm.cpp:688)
Neighbor list info ...
  update: every = 1 steps, delay = 1 steps, check = yes
  max neighbors/atom: 2000, page size: 100000
  master list distance cutoff = 1.52
  ghost atom cutoff = 1.52
  binsize = 0.76, bins = 89 89 89
  1 neighbor lists, perpetual/occasional/extra = 1 0 0
  (1) pair lj/cut, perpetual
      attributes: half, newton on
      pair build: half/bin/newton
      stencil: half/bin/3d
      bin: standard
WARNING: Communication cutoff 1.52 is shorter than a bond length based estimate of 1.855. This may lead to errors. (src/comm.cpp:688)
Per MPI rank memory allocation (min/avg/max) = 82.14 | 82.14 | 82.14 Mbytes
   Step          Temp          PotEng         KinEng         TotEng         Press     
         0   0.97027119     20.939364      1.4554011      22.394765      4.6721833    
       100   0.97228481     20.944221      1.4584215      22.402642      4.6894465    
       200   0.97774314     20.943202      1.466609       22.409811      4.6890433    
       300   0.97750615     20.951951      1.4662535      22.418205      4.7255007    
       400   0.98115073     20.95222       1.4717204      22.42394       4.7255395    
       500   0.98380042     20.953164      1.4756949      22.428859      4.7108429    
       600   0.98546678     20.953745      1.4781944      22.431939      4.7579219    
       700   0.98655686     20.956376      1.4798295      22.436205      4.7611405    
       800   0.9882098      20.956044      1.4823089      22.438352      4.7150707    
       900   0.99122392     20.955426      1.4868301      22.442256      4.7159045    
      1000   0.98985834     20.961155      1.4847817      22.445937      4.747698     
      1100   0.99113482     20.96095       1.4866964      22.447646      4.7667673    
      1200   0.99462687     20.960229      1.4919345      22.452164      4.7813212    
      1300   0.99289627     20.964407      1.4893386      22.453745      4.7895326    
      1400   0.99736596     20.96149       1.4960431      22.457533      4.7941324    
      1500   0.99594546     20.966782      1.4939124      22.460695      4.7830201    
      1600   0.99899794     20.962459      1.4984911      22.46095       4.751974     
      1700   0.99740898     20.968243      1.4961076      22.464351      4.7939549    
      1800   0.99957826     20.964781      1.4993615      22.464142      4.7644291    
      1900   0.99841805     20.966572      1.4976212      22.464193      4.8039863    
      2000   0.9969974      20.967242      1.4954903      22.462733      4.7999497    
Loop time of 73.4362 on 1 procs for 2000 steps with 256000 atoms

Performance: 28236.761 tau/day, 27.235 timesteps/s, 6.972 Matom-step/s
99.8% CPU use with 1 MPI tasks x 1 OpenMP threads

MPI task timing breakdown:
Section |  min time  |  avg time  |  max time  |%varavg| %total
---------------------------------------------------------------
Pair    | 16.183     | 16.183     | 16.183     |   0.0 | 22.04
Bond    | 2.9367     | 2.9367     | 2.9367     |   0.0 |  4.00
Neigh   | 44.019     | 44.019     | 44.019     |   0.0 | 59.94
Comm    | 1.1756     | 1.1756     | 1.1756     |   0.0 |  1.60
Output  | 0.0058803  | 0.0058803  | 0.0058803  |   0.0 |  0.01
Modify  | 8.4195     | 8.4195     | 8.4195     |   0.0 | 11.47
Other   |            | 0.6962     |            |       |  0.95

Nlocal:         256000 ave      256000 max      256000 min
Histogram: 1 0 0 0 0 0 0 0 0 0
Nghost:          36304 ave       36304 max       36304 min
Histogram: 1 0 0 0 0 0 0 0 0 0
Neighs:    1.24571e+06 ave 1.24571e+06 max 1.24571e+06 min
Histogram: 1 0 0 0 0 0 0 0 0 0

Total # of neighbors = 1245709
Ave neighs/atom = 4.8660508
Ave special neighs/atom = 1.98
Neighbor list builds = 513
Dangerous builds = 0
Total wall time: 0:01:13
